p cnf 124 271
c node "figure7c-0-0" must have at least one color
1 2 3 4 0
c node "figure7c-0-1" must have at least one color
5 6 7 8 0
c node "figure7c-0-2" must have at least one color
9 10 11 12 0
c node "figure7c-1-1" must have at least one color
13 14 15 16 0
c node "figure7c-1-2" must have at least one color
17 18 19 20 0
c node "figure7c-2-1" must have at least one color
21 22 23 24 0
c node "figure7c-2-2" must have at least one color
25 26 27 28 0
c node "figure7c-3-1" must have at least one color
29 30 31 32 0
c node "figure7c-3-2" must have at least one color
33 34 35 36 0
c node "figure7c-4-1" must have at least one color
37 38 39 40 0
c node "figure7c-4-2" must have at least one color
41 42 43 44 0
c node "figure7c-5-2" must have at least one color
45 46 47 48 0
c node "figure7c-6-2" must have at least one color
49 50 51 52 0
c node "figure7c-7-2" must have at least one color
53 54 55 56 0
c node "figure7c-8-2" must have at least one color
57 58 59 60 0
c node "figure7c-9-2" must have at least one color
61 62 63 64 0
c node "figure7c-10-2" must have at least one color
65 66 67 68 0
c node "figure7c-11-2" must have at least one color
69 70 71 72 0
c node "figure7c-12-2" must have at least one color
73 74 75 76 0
c node "figure7c-13-2" must have at least one color
77 78 79 80 0
c node "figure7c-14-2" must have at least one color
81 82 83 84 0
c node "figure7c-15-2" must have at least one color
85 86 87 88 0
c node "figure7c-16-2" must have at least one color
89 90 91 92 0
c node "figure7c-17-2" must have at least one color
93 94 95 96 0
c node "figure7c-18-2" must have at least one color
97 98 99 100 0
c node "figure7c-19-2" must have at least one color
101 102 103 104 0
c node "figure7c-20-2" must have at least one color
105 106 107 108 0
c node "figure7c-21-2" must have at least one color
109 110 111 112 0
c node "figure7c-22-2" must have at least one color
113 114 115 116 0
c node "figure7c-23-2" must have at least one color
117 118 119 120 0
c node "figure7c-24-2" must have at least one color
121 122 123 124 0
c nodes "figure7c-0-0" and "figure7c-0-1" may not have the same color
-1 -5 0
-2 -6 0
-3 -7 0
-4 -8 0
c nodes "figure7c-0-0" and "figure7c-0-2" may not have the same color
-1 -9 0
-2 -10 0
-3 -11 0
-4 -12 0
c nodes "figure7c-0-0" and "figure7c-1-1" may not have the same color
-1 -13 0
-2 -14 0
-3 -15 0
-4 -16 0
c nodes "figure7c-0-0" and "figure7c-1-2" may not have the same color
-1 -17 0
-2 -18 0
-3 -19 0
-4 -20 0
c nodes "figure7c-0-0" and "figure7c-2-1" may not have the same color
-1 -21 0
-2 -22 0
-3 -23 0
-4 -24 0
c nodes "figure7c-0-0" and "figure7c-2-2" may not have the same color
-1 -25 0
-2 -26 0
-3 -27 0
-4 -28 0
c nodes "figure7c-0-0" and "figure7c-3-1" may not have the same color
-1 -29 0
-2 -30 0
-3 -31 0
-4 -32 0
c nodes "figure7c-0-0" and "figure7c-3-2" may not have the same color
-1 -33 0
-2 -34 0
-3 -35 0
-4 -36 0
c nodes "figure7c-0-0" and "figure7c-4-1" may not have the same color
-1 -37 0
-2 -38 0
-3 -39 0
-4 -40 0
c nodes "figure7c-0-0" and "figure7c-4-2" may not have the same color
-1 -41 0
-2 -42 0
-3 -43 0
-4 -44 0
c nodes "figure7c-0-0" and "figure7c-5-2" may not have the same color
-1 -45 0
-2 -46 0
-3 -47 0
-4 -48 0
c nodes "figure7c-0-0" and "figure7c-6-2" may not have the same color
-1 -49 0
-2 -50 0
-3 -51 0
-4 -52 0
c nodes "figure7c-0-0" and "figure7c-7-2" may not have the same color
-1 -53 0
-2 -54 0
-3 -55 0
-4 -56 0
c nodes "figure7c-0-0" and "figure7c-8-2" may not have the same color
-1 -57 0
-2 -58 0
-3 -59 0
-4 -60 0
c nodes "figure7c-0-0" and "figure7c-9-2" may not have the same color
-1 -61 0
-2 -62 0
-3 -63 0
-4 -64 0
c nodes "figure7c-0-0" and "figure7c-10-2" may not have the same color
-1 -65 0
-2 -66 0
-3 -67 0
-4 -68 0
c nodes "figure7c-0-0" and "figure7c-11-2" may not have the same color
-1 -69 0
-2 -70 0
-3 -71 0
-4 -72 0
c nodes "figure7c-0-0" and "figure7c-12-2" may not have the same color
-1 -73 0
-2 -74 0
-3 -75 0
-4 -76 0
c nodes "figure7c-0-0" and "figure7c-13-2" may not have the same color
-1 -77 0
-2 -78 0
-3 -79 0
-4 -80 0
c nodes "figure7c-0-0" and "figure7c-14-2" may not have the same color
-1 -81 0
-2 -82 0
-3 -83 0
-4 -84 0
c nodes "figure7c-0-0" and "figure7c-15-2" may not have the same color
-1 -85 0
-2 -86 0
-3 -87 0
-4 -88 0
c nodes "figure7c-0-0" and "figure7c-16-2" may not have the same color
-1 -89 0
-2 -90 0
-3 -91 0
-4 -92 0
c nodes "figure7c-0-0" and "figure7c-17-2" may not have the same color
-1 -93 0
-2 -94 0
-3 -95 0
-4 -96 0
c nodes "figure7c-0-0" and "figure7c-18-2" may not have the same color
-1 -97 0
-2 -98 0
-3 -99 0
-4 -100 0
c nodes "figure7c-0-0" and "figure7c-19-2" may not have the same color
-1 -101 0
-2 -102 0
-3 -103 0
-4 -104 0
c nodes "figure7c-0-0" and "figure7c-20-2" may not have the same color
-1 -105 0
-2 -106 0
-3 -107 0
-4 -108 0
c nodes "figure7c-0-0" and "figure7c-21-2" may not have the same color
-1 -109 0
-2 -110 0
-3 -111 0
-4 -112 0
c nodes "figure7c-0-0" and "figure7c-22-2" may not have the same color
-1 -113 0
-2 -114 0
-3 -115 0
-4 -116 0
c nodes "figure7c-0-0" and "figure7c-23-2" may not have the same color
-1 -117 0
-2 -118 0
-3 -119 0
-4 -120 0
c nodes "figure7c-0-0" and "figure7c-24-2" may not have the same color
-1 -121 0
-2 -122 0
-3 -123 0
-4 -124 0
c nodes "figure7c-0-1" and "figure7c-0-2" may not have the same color
-5 -9 0
-6 -10 0
-7 -11 0
-8 -12 0
c nodes "figure7c-0-1" and "figure7c-20-2" may not have the same color
-5 -105 0
-6 -106 0
-7 -107 0
-8 -108 0
c nodes "figure7c-0-2" and "figure7c-5-2" may not have the same color
-9 -45 0
-10 -46 0
-11 -47 0
-12 -48 0
c nodes "figure7c-1-1" and "figure7c-1-2" may not have the same color
-13 -17 0
-14 -18 0
-15 -19 0
-16 -20 0
c nodes "figure7c-1-1" and "figure7c-21-2" may not have the same color
-13 -109 0
-14 -110 0
-15 -111 0
-16 -112 0
c nodes "figure7c-1-2" and "figure7c-6-2" may not have the same color
-17 -49 0
-18 -50 0
-19 -51 0
-20 -52 0
c nodes "figure7c-2-1" and "figure7c-2-2" may not have the same color
-21 -25 0
-22 -26 0
-23 -27 0
-24 -28 0
c nodes "figure7c-2-1" and "figure7c-22-2" may not have the same color
-21 -113 0
-22 -114 0
-23 -115 0
-24 -116 0
c nodes "figure7c-2-2" and "figure7c-7-2" may not have the same color
-25 -53 0
-26 -54 0
-27 -55 0
-28 -56 0
c nodes "figure7c-3-1" and "figure7c-3-2" may not have the same color
-29 -33 0
-30 -34 0
-31 -35 0
-32 -36 0
c nodes "figure7c-3-1" and "figure7c-23-2" may not have the same color
-29 -117 0
-30 -118 0
-31 -119 0
-32 -120 0
c nodes "figure7c-3-2" and "figure7c-8-2" may not have the same color
-33 -57 0
-34 -58 0
-35 -59 0
-36 -60 0
c nodes "figure7c-4-1" and "figure7c-4-2" may not have the same color
-37 -41 0
-38 -42 0
-39 -43 0
-40 -44 0
c nodes "figure7c-4-1" and "figure7c-24-2" may not have the same color
-37 -121 0
-38 -122 0
-39 -123 0
-40 -124 0
c nodes "figure7c-4-2" and "figure7c-9-2" may not have the same color
-41 -61 0
-42 -62 0
-43 -63 0
-44 -64 0
c nodes "figure7c-5-2" and "figure7c-10-2" may not have the same color
-45 -65 0
-46 -66 0
-47 -67 0
-48 -68 0
c nodes "figure7c-6-2" and "figure7c-11-2" may not have the same color
-49 -69 0
-50 -70 0
-51 -71 0
-52 -72 0
c nodes "figure7c-7-2" and "figure7c-12-2" may not have the same color
-53 -73 0
-54 -74 0
-55 -75 0
-56 -76 0
c nodes "figure7c-8-2" and "figure7c-13-2" may not have the same color
-57 -77 0
-58 -78 0
-59 -79 0
-60 -80 0
c nodes "figure7c-9-2" and "figure7c-14-2" may not have the same color
-61 -81 0
-62 -82 0
-63 -83 0
-64 -84 0
c nodes "figure7c-10-2" and "figure7c-15-2" may not have the same color
-65 -85 0
-66 -86 0
-67 -87 0
-68 -88 0
c nodes "figure7c-11-2" and "figure7c-16-2" may not have the same color
-69 -89 0
-70 -90 0
-71 -91 0
-72 -92 0
c nodes "figure7c-12-2" and "figure7c-17-2" may not have the same color
-73 -93 0
-74 -94 0
-75 -95 0
-76 -96 0
c nodes "figure7c-13-2" and "figure7c-18-2" may not have the same color
-77 -97 0
-78 -98 0
-79 -99 0
-80 -100 0
c nodes "figure7c-14-2" and "figure7c-19-2" may not have the same color
-81 -101 0
-82 -102 0
-83 -103 0
-84 -104 0
c nodes "figure7c-15-2" and "figure7c-20-2" may not have the same color
-85 -105 0
-86 -106 0
-87 -107 0
-88 -108 0
c nodes "figure7c-16-2" and "figure7c-21-2" may not have the same color
-89 -109 0
-90 -110 0
-91 -111 0
-92 -112 0
c nodes "figure7c-17-2" and "figure7c-22-2" may not have the same color
-93 -113 0
-94 -114 0
-95 -115 0
-96 -116 0
c nodes "figure7c-18-2" and "figure7c-23-2" may not have the same color
-97 -117 0
-98 -118 0
-99 -119 0
-100 -120 0
c nodes "figure7c-19-2" and "figure7c-24-2" may not have the same color
-101 -121 0
-102 -122 0
-103 -123 0
-104 -124 0